c Cardinality constraint <=k(x_1,...,x_n) for k = 2 and n = 6.
p cnf 16 23
-1 7 0
-8 0
-2 9 0
-7 9 0
-2 -7 10 0
-8 10 0
-2 -8 0
-3 11 0
-9 11 0
-3 -9 12 0
-10 12 0
-3 -10 0
-4 13 0
-11 13 0
-4 -11 14 0
-12 14 0
-4 -12 0
-5 15 0
-13 15 0
-5 -13 16 0
-14 16 0
-5 -14 0
-6 -16 0
